StudentsNr = 10;
InstructorsNr = 99;
DaysNr = 2;
SlotsPerDay = 40;
AvailabilitySlotsLenght = 40;
RoomNr = 1;
ProgrammNr = 1;
DegreeNr = 3;
RolesNr = 3;
CoursesNr = 2;
InstructorsProgramm = [{1}, {1}, {1}, {1}, {1}, {1}, {1}, {1}, {1}, {1}, {1}, {1}, {1}, {1}, {1}, {1}, {1}, {1}, {1}, {1}, {1}, {1}, {1}, {1}, {1}, {1}, {1}, {1}, {1}, {1}, {1}, {1}, {1}, {1}, {1}, {1}, {1}, {1}, {1}, {1}, {1}, {1}, {1}, {1}, {1}, {1}, {1}, {1}, {1}, {1}, {1}, {1}, {1}, {1}, {1}, {1}, {1}, {1}, {1}, {1}, {1}, {1}, {1}, {1}, {1}, {1}, {1}, {1}, {1}, {1}, {1}, {1}, {1}, {1}, {1}, {1}, {1}, {1}, {1}, {1}, {1}, {1}, {1}, {1}, {1}, {1}, {1}, {1}, {1}, {1}, {1}, {1}, {1}, {1}, {1}, {1}, {1}, {1}, {1}];
InstructorRolesPerProgramm = [|{1, 7, 8, 10, 11, 14, 15, 17, 23, 29, 31, 39, 43, 44, 47, 48, 49, 52, 53, 54, 57, 59, 62, 64, 65, 69, 71, 75, 77, 80, 83, 87, 88, 89, 90, 91, 92, 93}, {1, 2, 4, 5, 6, 7, 9, 12, 13, 14, 23, 24, 26, 28, 29, 30, 31, 32, 34, 35, 37, 45, 50, 52, 54, 57, 59, 60, 62, 65, 68, 69, 71, 74, 84, 86, 88, 89, 94, 95, 97}, {2, 3, 6, 14, 21, 23, 25, 26, 30, 35, 40, 41, 43, 44, 47, 56, 58, 63, 65, 77, 79, 84, 87, 88, 90, 93, 94}|];
InstructorsAvailability = [|0, 0, |1, 1, |1, 1, |1, 1, |0, 0, |1, 1, |0, 1, |1, 1, |1, 1, |1, 1, |0, 1, |0, 1, |0, 1, |0, 1, |0, 1, |0, 0, |0, 0, |1, 1, |0, 0, |1, 0, |0, 0, |1, 1, |0, 1, |1, 1, |1, 1, |1, 1, |1, 1, |0, 0, |0, 0, |0, 1, |1, 1, |0, 1, |1, 1, |0, 0, |1, 1, |1, 1, |0, 1, |1, 0, |0, 1, |0, 0, |0, 1, |1, 0, |1, 1, |1, 1, |0, 1, |1, 1, |0, 1, |1, 1, |1, 1, |1, 1, |1, 1, |1, 1, |1, 1, |1, 0, |0, 0, |1, 0, |1, 1, |1, 1, |1, 1, |0, 0, |1, 1, |1, 1, |1, 1, |0, 0, |0, 1, |0, 0, |1, 0, |0, 0, |0, 0, |0, 0, |0, 1, |0, 0, |0, 0, |1, 1, |0, 0, |0, 1, |0, 0, |0, 1, |0, 1, |0, 1, |0, 0, |1, 1, |1, 1, |0, 1, |1, 1, |0, 1, |0, 1, |0, 1, |1, 0, |1, 1, |1, 1, |0, 1, |1, 0, |0, 1, |1, 1, |0, 1, |0, 0, |1, 1, |1, 1|];
StudentsProgramm = [1, 1, 1, 1, 1, 1, 1, 1, 1, 1];
StudentsDegree = [3, 3, 3, 1, 2, 1, 1, 2, 1, 2];
StudentsSupervisorId = [46, 25, 72, 95, 88, 60, 22, 92, 33, 57];
StudentsCourseIds = [{1}, {2}, {2}, {1, 2}, {}, {1, 2}, {1, 2}, {}, {1, 2}, {}];
StudentsAvailability = [|1, 1, |1, 1, |0, 1, |1, 1, |0, 0, |0, 0, |1, 1, |1, 1, |0, 1, |0, 0|];
TheoryticalMinCard = [0, 0, 1, 0, 0, 0, 0, 0, 0, 0];
CoursesInstructorIds = [{1, 2, 4, 5, 7, 8, 11, 13, 14, 15, 16, 17, 18, 19, 20, 21, 22, 23, 24, 26, 28, 29, 31, 35, 37, 39, 40, 42, 46, 47, 48, 50, 51, 55, 57, 59, 61, 62, 64, 65, 67, 68, 70, 71, 72, 73, 74, 75, 77, 78, 79, 80, 82, 84, 85, 86, 88, 89, 91, 93, 94, 97, 99}, {6, 8, 11, 14, 16, 21, 22, 33, 42, 43, 45, 48, 50, 51, 52, 54, 67, 83, 91}];
RolesDemands = [23, 7, 19];
RolesContinuity = [2, 3];
ExamLen = [1, 1, 1, 1, 1, 1, 1, 1, 1, 1];
LunchTsMinLen = 1;
LunchStarts = [15..22, 53..61];
SupervisorAvailable = 5;
OptimalLunchLenght = [2, 1];
OptimalStartTs = [2, 0];
OptimalFinishTs = [0, 40];
MinimizeRooms = 300;
RolesSoftContinuity = [|1, 2, 3|3, 1, 2|];
SameDegreeInRoom = 0;
Mergeability = 0;
